131
0 82 22 106 60 84 28 110 4 107 
109 123 70 42 103 48 102 71 75 115 
88 85 36 116 64 9 35 119 96 38 
56 90 30 39 1 19 78 21 34 53 
91 63 118 49 68 25 69 104 99 11 
112 76 81 45 5 54 40 17 27 130 
61 79 126 73 26 41 121 124 46 122 
65 59 3 31 74 101 129 97 111 98 
127 32 52 77 128 89 6 114 72 12 
62 43 20 7 125 93 14 15 87 95 
8 2 18 80 47 92 57 83 10 55 
24 44 86 51 117 105 100 120 33 66 
16 50 58 113 67 94 29 108 23 37 
13 
